
Gurobi 8.1.1 (win64) logging started 11/28/19 05:00:42

Changed value of parameter LogFile to logs/drand/rlt/drand-05-075-2.log
   Prev: gurobi.log  Default: 
Changed value of parameter LogToConsole to 0
   Prev: 1  Min: 0  Max: 1  Default: 1
Changed value of parameter TimeLimit to 3600.0
   Prev: 1e+100  Min: 0.0  Max: 1e+100  Default: 1e+100
Optimize a model with 94883 rows, 31878 columns and 222391 nonzeros
Variable types: 0 continuous, 31878 integer (252 binary)
Coefficient statistics:
  Matrix range     [1e+00, 1e+00]
  Objective range  [1e+00, 1e+00]
  Bounds range     [1e+00, 1e+00]
  RHS range        [1e+00, 1e+00]
Presolve time: 0.90s
Presolved: 94883 rows, 31878 columns, 222391 nonzeros
Variable types: 0 continuous, 31878 integer (31878 binary)
Found heuristic solution: objective 7.0000000
Found heuristic solution: objective 5.0000000

Root simplex log...

Iteration    Objective       Primal Inf.    Dual Inf.      Time
    3180    1.3683860e+00   0.000000e+00   0.000000e+00      5s

Root relaxation: objective 1.368386e+00, 3180 iterations, 3.90 seconds

    Nodes    |    Current Node    |     Objective Bounds      |     Work
 Expl Unexpl |  Obj  Depth IntInf | Incumbent    BestBd   Gap | It/Node Time

     0     0    1.36839    0 1238    5.00000    1.36839  72.6%     -    7s
     0     0    1.64898    0  731    5.00000    1.64898  67.0%     -   12s
     0     0    1.64943    0  676    5.00000    1.64943  67.0%     -   18s
     0     0    1.67395    0 1050    5.00000    1.67395  66.5%     -   20s
     0     0    1.68929    0  946    5.00000    1.68929  66.2%     -   23s
     0     0    1.71177    0  773    5.00000    1.71177  65.8%     -   26s
     0     0    1.71231    0  792    5.00000    1.71231  65.8%     -   37s
     0     0    1.73036    0  814    5.00000    1.73036  65.4%     -   39s
     0     0    1.73176    0  867    5.00000    1.73176  65.4%     -   44s
     0     0    1.75082    0  772    5.00000    1.75082  65.0%     -   46s
     0     0    1.75141    0  754    5.00000    1.75141  65.0%     -   63s
     0     0    1.76291    0  744    5.00000    1.76291  64.7%     -   65s
     0     0    1.76379    0  765    5.00000    1.76379  64.7%     -   67s
     0     0    1.77211    0  800    5.00000    1.77211  64.6%     -   70s
     0     0    1.77319    0  773    5.00000    1.77319  64.5%     -   72s
     0     0    1.78035    0  882    5.00000    1.78035  64.4%     -   74s
     0     0    1.78065    0  883    5.00000    1.78065  64.4%     -   77s
     0     0    1.79139    0  845    5.00000    1.79139  64.2%     -   80s
     0     0    1.79175    0  825    5.00000    1.79175  64.2%     -   86s
     0     0    1.79971    0  821    5.00000    1.79971  64.0%     -   90s
     0     0    1.80016    0  817    5.00000    1.80016  64.0%     -  111s
     0     0    1.80553    0  867    5.00000    1.80553  63.9%     -  115s
     0     0    1.80563    0  865    5.00000    1.80563  63.9%     -  118s
     0     0    1.81025    0  917    5.00000    1.81025  63.8%     -  121s
     0     0    1.81044    0  883    5.00000    1.81044  63.8%     -  124s
     0     0    1.81363    0  896    5.00000    1.81363  63.7%     -  127s
     0     0    1.81370    0  899    5.00000    1.81370  63.7%     -  130s
     0     0    1.81652    0  833    5.00000    1.81652  63.7%     -  133s
     0     0    1.81670    0  842    5.00000    1.81670  63.7%     -  142s
     0     0    1.81890    0  883    5.00000    1.81890  63.6%     -  145s
     0     0    1.81918    0  917    5.00000    1.81918  63.6%     -  149s
     0     0    1.82160    0  887    5.00000    1.82160  63.6%     -  152s
     0     0    1.82173    0  872    5.00000    1.82173  63.6%     -  162s
     0     0    1.82335    0  889    5.00000    1.82335  63.5%     -  166s
     0     0    1.82345    0  903    5.00000    1.82345  63.5%     -  168s
     0     0    1.82544    0  896    5.00000    1.82544  63.5%     -  172s
     0     0    1.82559    0  892    5.00000    1.82559  63.5%     -  183s
     0     0    1.82564    0  903    5.00000    1.82564  63.5%     -  183s
     0     0    1.82674    0  845    5.00000    1.82674  63.5%     -  189s
     0     0    1.82677    0  851    5.00000    1.82677  63.5%     -  193s
     0     0    1.82884    0  884    5.00000    1.82884  63.4%     -  197s
     0     0    1.82889    0  875    5.00000    1.82889  63.4%     -  208s
     0     0    1.83002    0  873    5.00000    1.83002  63.4%     -  213s
     0     0    1.83010    0  876    5.00000    1.83010  63.4%     -  218s
     0     0    1.83117    0  952    5.00000    1.83117  63.4%     -  223s
     0     0    1.83120    0  964    5.00000    1.83120  63.4%     -  237s
     0     0    1.83256    0  912    5.00000    1.83256  63.3%     -  242s
     0     0    1.83258    0  912    5.00000    1.83258  63.3%     -  247s
     0     0    1.83320    0  910    5.00000    1.83320  63.3%     -  250s
     0     0    1.83327    0  926    5.00000    1.83327  63.3%     -  256s
     0     0    1.83371    0  952    5.00000    1.83371  63.3%     -  261s
     0     0    1.83371    0  952    5.00000    1.83371  63.3%     -  261s
     0     2    1.83371    0  952    5.00000    1.83371  63.3%     - 1089s
     1     4    1.83404    1  890    5.00000    1.83372  63.3%  1357 1103s
     3     6    1.83429    2  875    5.00000    1.83405  63.3%  3139 1106s
     5     8    1.83471    3  826    5.00000    1.83405  63.3%  2284 1110s
     9    10    1.83541    5  831    5.00000    1.83405  63.3%  1717 1116s
    13    14    1.83813    7  715    5.00000    1.83405  63.3%  1514 1122s
    17    18    1.84236    9  726    5.00000    1.83405  63.3%  1393 1127s
    19    20    1.84483   10  751    5.00000    1.83405  63.3%  1336 1130s
    25    26    1.85992   13  696    5.00000    1.83405  63.3%  1210 1138s
    28    29    1.86628   14  623    5.00000    1.83405  63.3%  1154 1254s
    30    31    1.87750   15  610    5.00000    1.83405  63.3%  1118 1257s
    34    35    1.90595   17  537    5.00000    1.83405  63.3%  1059 1260s
    44    45    2.04559   23  528    5.00000    1.83405  63.3%   919 1265s
    57    58    2.34426   32  448    5.00000    1.83405  63.3%   792 1328s
    65    66    2.64525   38  405    5.00000    1.83405  63.3%   733 1331s
    85    83    3.74026   53  125    5.00000    1.83430  63.3%   610 1346s
    98    94    2.59236    4 1224    5.00000    1.83430  63.3%   633 1352s
   103    98    2.60082    6 1198    5.00000    1.83430  63.3%   621 1356s
   112   107    2.61493    9 1179    5.00000    1.83430  63.3%   595 1360s
   127   122    2.62868   12 1121    5.00000    1.83430  63.3%   549 1438s
   129   124    2.63489   13 1107    5.00000    1.83430  63.3%   544 1442s
   145   140    2.64862   16 1069    5.00000    1.83430  63.3%   499 1445s
   164   156    2.66354   20 1045    5.00000    1.83430  63.3%   458 1456s
   178   169    2.68807   24 1021    5.00000    1.83430  63.3%   464 1460s
   191   180    2.73247   32  942    5.00000    1.83430  63.3%   458 1468s
   201   190    2.77742   38  850    5.00000    1.83430  63.3%   449 1473s
   211   200    2.84656   44  807    5.00000    1.83430  63.3%   442 1478s
   225   214    3.02258   54  709    5.00000    1.83430  63.3%   431 1484s
   247   233    3.49020   72  516    5.00000    1.83519  63.3%   411 1499s
   273   259    2.61115    4 1254    5.00000    1.83519  63.3%   411 1504s
   282   267    2.62033    6 1207    5.00000    1.83519  63.3%   409 1510s
   296   280    2.62719    8 1172    5.00000    1.83519  63.3%   402 1517s
   316   301    2.63882   11 1132    5.00000    1.83519  63.3%   392 1525s
   340   319    2.65304   15 1072    5.00000    1.83519  63.3%   380 1535s
   351   327    2.67369   19 1033    5.00000    1.83519  63.3%   389 1607s
   353   330    2.67908   20 1023    5.00000    1.83519  63.3%   390 1614s
   362   337    2.70639   25  901    5.00000    1.83519  63.3%   391 1620s
   373   348    2.74836   30  890    5.00000    1.83519  63.3%   392 1626s
   384   359    2.78772   35  860    5.00000    1.83519  63.3%   391 1633s
   398   373    2.84377   43  831    5.00000    1.83519  63.3%   389 1640s
   427   402    3.22835   64  639    5.00000    1.83519  63.3%   378 1785s
   440   411    3.53271   74  539    5.00000    1.83591  63.3%   374 1798s
   474   440    2.63606    6 1163    5.00000    1.83591  63.3%   374 1812s
   514   475    2.66010   12 1114    5.00000    1.83591  63.3%   370 1819s
   528   486    2.69489   20 1042    5.00000    1.83591  63.3%   372 1826s
   544   502    2.74694   29  918    5.00000    1.83591  63.3%   373 1834s
   565   523    2.82907   40  853    5.00000    1.83591  63.3%   373 1844s
   609   559    3.53642   73  441    5.00000    1.83918  63.2%   364 1863s
   675   616    2.65949    8 1116    5.00000    1.84243  63.2%   358 1875s
   695   622    2.68144   16 1036    5.00000    1.84243  63.2%   362 1887s
   725   634    2.66451   14  952    5.00000    1.84243  63.2%   371 1926s
   727   635    2.97391   51 1238    5.00000    1.84243  63.2%   370 1938s
   728   636    2.79454   35  826    5.00000    1.84243  63.2%   369 2705s
   729   637    3.18846   62  906    5.00000    1.84243  63.2%   369 2716s
   730   637    2.67284   13  915    5.00000    1.84243  63.2%   368 2733s
   731   638    2.76239   33  909    5.00000    1.84243  63.2%   368 2740s
   732   639    2.98651   52  885    5.00000    1.84243  63.2%   367 2757s
   733   639    2.66657   10  946    5.00000    1.84243  63.2%   367 2765s
   734   640    2.76523   27  962    5.00000    1.84243  63.2%   366 2785s
   736   641    3.43462   72  945    5.00000    1.84243  63.2%   365 2808s
   737   642    2.86928   45  926    5.00000    1.84243  63.2%   365 2813s
   738   643    3.64224   25  957    5.00000    1.84243  63.2%   364 2836s
   739   643    2.63642   11  927    5.00000    1.84243  63.2%   364 2841s
   740   644    3.46949   76  959    5.00000    1.84243  63.2%   363 2864s
   741   645    2.66466   16  986    5.00000    1.84243  63.2%   363 2868s
   742   645    3.23571   64  994    5.00000    1.84243  63.2%   362 2895s
   744   647    2.80947   39  993    5.00000    1.84243  63.2%   361 2925s
   746   648    2.93047   50 1006    5.00000    1.84243  63.2%   360 2956s
   747   649    2.70982   26 1001    5.00000    1.84243  63.2%   360 2960s
   748   649    3.82353   80  967    5.00000    1.84252  63.1%   359 2987s
   749   650    2.73074   26  975    5.00000    1.84265  63.1%   359 2991s
   750   651    2.72979   27  985    5.00000    1.84341  63.1%   358 3021s
   751   651    2.68397   17  977    5.00000    1.84353  63.1%   358 3027s
   752   652    3.60842   76  977    5.00000    1.84444  63.1%   357 3057s
   753   653    2.66663    4  949    5.00000    1.84454  63.1%   357 3062s
   754   653    3.18242   61  972    5.00000    1.84517  63.1%   356 3094s
   755   654    3.67281   80  961    5.00000    1.84530  63.1%   356 3099s
   756   655    2.70078   19  982    5.00000    1.84588  63.1%   355 3115s
   757   655    3.73295   81  970    5.00000    1.84601  63.1%   355 3121s
   758   656    3.73026   84  972    5.00000    1.84650  63.1%   354 3210s
   759   657    3.48819   51  985    5.00000    1.84662  63.1%   354 3215s
   760   657    2.70219   25  991    5.00000    1.84706  63.1%   354 3232s
   761   658    2.85792   39  983    5.00000    1.84714  63.1%   353 3236s
   762   659    3.05375   55  973    5.00000    1.84742  63.1%   353 3252s
   763   659    3.44667   50  956    5.00000    1.84747  63.1%   352 3256s
   764   660    2.81125   41  994    5.00000    1.84779  63.0%   352 3274s
   765   661    2.65104   15 1007    5.00000    1.84783  63.0%   351 3279s
   766   661    2.70957   24 1018    5.00000    1.84820  63.0%   351 3290s
   768   663    3.38356   69 1018    5.00000    1.84820  63.0%   350 3367s
   769   666    1.84825   11  996    5.00000    1.84820  63.0%   448 3470s
   771   668    1.84837   12  992    5.00000    1.84825  63.0%   460 3475s
   773   669    2.67900   12 1206    5.00000    1.84837  63.0%   472 3496s
   775   670    1.84855   13  927    5.00000    1.84838  63.0%   477 3500s
   777   672    2.67573   13 1259    5.00000    1.84855  63.0%   488 3522s
   779   675    1.84859   14  894    5.00000    1.84859  63.0%   492 3541s
   783   673    1.84879   15  880    5.00000    1.84860  63.0%   506 3550s
   786   677    2.68497   15 1188    5.00000    1.84879  63.0%   519 3568s
   789   677    1.84902   16  849    5.00000    1.84883  63.0%   525 3578s
   792   679    2.64394   16 1186    5.00000    1.84902  63.0%   537 3594s

Cutting planes:
  Gomory: 6
  Zero half: 98
  Mod-K: 155

Explored 795 nodes (475983 simplex iterations) in 3600.05 seconds
Thread count was 4 (of 4 available processors)

Solution count 2: 5 7 

Time limit reached
Best objective 5.000000000000e+00, best bound 2.000000000000e+00, gap 60.0000%
